(set-info :smt-lib-version 2.6)
(set-logic ALIA)
(set-info :source |
Generated by the tool Ultimate Automizer [1,2] which implements
an automata theoretic approach [3] to software verification.

This SMT script belongs to a set of SMT scripts that was generated by
applying Ultimate Automizer to benchmarks [4] from the SV-COMP 2023 [5,6].
This script may not contain all SMT commands that Ultimate Automizer
issued. In order to meet the restrictions for SMT-COMP benchmarks 
we dropped the commands for getting values (resp. models), 
unsatisfiable cores, and interpolants.

2023-03-21, Matthias Heizmann (heizmann@informatik.uni-freiburg.de)

[1] https://ultimate.informatik.uni-freiburg.de/automizer/
[2] Matthias Heizmann, Max Barth, Daniel Dietsch, Leonard Fichtner,
     Jochen Hoenicke, Dominik Klumpp, Mehdi Naouar, Tanja Schindler,
     Frank Schüssele, Andreas Podelski: Ultimate Automizer and the
     CommuHash Normal Form (Competition Contribution). TACAS 2023
[3] Matthias Heizmann, Jochen Hoenicke, Andreas Podelski: Software Model
     Checking for People Who Love Automata. CAV 2013
[4] https://github.com/sosy-lab/sv-benchmarks
[5] Dirk Beyer: Competition on Software Verification and
     Witness Validation: SV-COMP 2023.  TACAS 2023
[6] https://sv-comp.sosy-lab.org/2023/
|)
(set-info :license "https://creativecommons.org/licenses/by/4.0/")
(set-info :category "industrial")
(set-info :status unknown)
(declare-fun ~unnamed0~0~P_ALL () Int)
(declare-fun ~unnamed0~0~P_PID () Int)
(declare-fun ~unnamed0~0~P_PGID () Int)
(assert (= ~unnamed0~0~P_ALL 0))
(assert (= ~unnamed0~0~P_PID 1))
(assert (= 2 ~unnamed0~0~P_PGID))
(declare-fun |#memory_int| () (Array Int (Array Int Int)))
(declare-fun |ULTIMATE.start_main_~data~0#1| () Int)
(declare-fun |ULTIMATE.start_dll_create_#res#1.base| () Int)
(declare-fun |ULTIMATE.start_dll_create_#res#1.offset| () Int)
(declare-fun |ULTIMATE.start_main_~#s~0#1.offset| () Int)
(declare-fun |#StackHeapBarrier| () Int)
(declare-fun |ULTIMATE.start_main_~#s~0#1.base| () Int)
(declare-fun |#valid| () (Array Int Int))
(assert (or (not (= (select |#valid| |ULTIMATE.start_main_~#s~0#1.base|) 0)) (<= |#StackHeapBarrier| |ULTIMATE.start_main_~#s~0#1.base|)))
(assert (or (not (= (select |#valid| |ULTIMATE.start_dll_create_#res#1.base|) 0)) (forall ((v_ArrVal_645 (Array Int Int)) (v_arrayElimCell_47 Int) (v_ArrVal_649 Int) (v_arrayElimCell_48 Int) (v_ArrVal_653 (Array Int Int))) (or (= (select (select (store (store |#memory_int| |ULTIMATE.start_dll_create_#res#1.base| (store v_ArrVal_645 (+ |ULTIMATE.start_dll_create_#res#1.offset| 12) v_ArrVal_649)) |ULTIMATE.start_main_~#s~0#1.base| v_ArrVal_653) v_arrayElimCell_47) v_arrayElimCell_48) |ULTIMATE.start_main_~data~0#1|) (= |ULTIMATE.start_main_~data~0#1| (select (select (store (store |#memory_int| |ULTIMATE.start_dll_create_#res#1.base| v_ArrVal_645) |ULTIMATE.start_main_~#s~0#1.base| v_ArrVal_653) v_arrayElimCell_47) v_arrayElimCell_48)))) (<= |#StackHeapBarrier| |ULTIMATE.start_dll_create_#res#1.base|)))
(assert (forall ((|v_ULTIMATE.start_node_create_~temp~0#1.base_7| Int)) (or (forall ((v_arrayElimCell_45 Int)) (or (= v_arrayElimCell_45 |ULTIMATE.start_main_~#s~0#1.base|) (forall ((v_ArrVal_645 (Array Int Int)) (v_arrayElimCell_47 Int) (v_arrayElimCell_46 Int) (v_ArrVal_649 Int) (v_arrayElimCell_48 Int) (v_ArrVal_653 (Array Int Int))) (let ((.cse1 (store |#memory_int| |v_ULTIMATE.start_node_create_~temp~0#1.base_7| v_ArrVal_645))) (let ((.cse0 (store (store .cse1 |ULTIMATE.start_dll_create_#res#1.base| (store (select .cse1 |ULTIMATE.start_dll_create_#res#1.base|) (+ |ULTIMATE.start_dll_create_#res#1.offset| 12) v_ArrVal_649)) |ULTIMATE.start_main_~#s~0#1.base| v_ArrVal_653))) (or (= |ULTIMATE.start_main_~data~0#1| (select (select .cse0 |ULTIMATE.start_dll_create_#res#1.base|) |ULTIMATE.start_dll_create_#res#1.offset|)) (= (select (select .cse0 v_arrayElimCell_47) v_arrayElimCell_48) |ULTIMATE.start_main_~data~0#1|) (= (select (select (store (store .cse1 v_arrayElimCell_45 (store (select .cse1 v_arrayElimCell_45) (+ 12 v_arrayElimCell_46) v_ArrVal_649)) |ULTIMATE.start_main_~#s~0#1.base| v_ArrVal_653) v_arrayElimCell_45) v_arrayElimCell_46) |ULTIMATE.start_main_~data~0#1|))))))) (not (= 0 (select |#valid| |v_ULTIMATE.start_node_create_~temp~0#1.base_7|))) (<= |#StackHeapBarrier| |v_ULTIMATE.start_node_create_~temp~0#1.base_7|))))
(assert (forall ((|v_ULTIMATE.start_node_create_~temp~0#1.base_7| Int)) (or (= |ULTIMATE.start_dll_create_#res#1.base| |v_ULTIMATE.start_node_create_~temp~0#1.base_7|) (forall ((v_ArrVal_645 (Array Int Int)) (v_arrayElimCell_47 Int) (v_ArrVal_649 Int) (v_arrayElimCell_48 Int) (v_ArrVal_653 (Array Int Int))) (let ((.cse0 (store |#memory_int| |v_ULTIMATE.start_node_create_~temp~0#1.base_7| v_ArrVal_645))) (or (= |ULTIMATE.start_main_~data~0#1| (select (select (store (store .cse0 |ULTIMATE.start_dll_create_#res#1.base| (store (select .cse0 |ULTIMATE.start_dll_create_#res#1.base|) (+ |ULTIMATE.start_dll_create_#res#1.offset| 12) v_ArrVal_649)) |ULTIMATE.start_main_~#s~0#1.base| v_ArrVal_653) |ULTIMATE.start_dll_create_#res#1.base|) |ULTIMATE.start_dll_create_#res#1.offset|)) (= |ULTIMATE.start_main_~data~0#1| (select (select (store .cse0 |ULTIMATE.start_main_~#s~0#1.base| v_ArrVal_653) v_arrayElimCell_47) v_arrayElimCell_48))))) (not (= 0 (select |#valid| |v_ULTIMATE.start_node_create_~temp~0#1.base_7|))) (<= |#StackHeapBarrier| |v_ULTIMATE.start_node_create_~temp~0#1.base_7|))))
(assert (or (not (= (select |#valid| |ULTIMATE.start_dll_create_#res#1.base|) 0)) (forall ((v_ArrVal_645 (Array Int Int)) (v_arrayElimCell_47 Int) (v_ArrVal_649 Int) (v_arrayElimCell_48 Int) (v_ArrVal_653 (Array Int Int))) (or (= (select (select (store (store |#memory_int| |ULTIMATE.start_dll_create_#res#1.base| (store v_ArrVal_645 (+ |ULTIMATE.start_dll_create_#res#1.offset| 12) v_ArrVal_649)) |ULTIMATE.start_main_~#s~0#1.base| v_ArrVal_653) v_arrayElimCell_47) v_arrayElimCell_48) |ULTIMATE.start_main_~data~0#1|) (= |ULTIMATE.start_main_~data~0#1| (select (select (store (store |#memory_int| |ULTIMATE.start_dll_create_#res#1.base| v_ArrVal_645) |ULTIMATE.start_main_~#s~0#1.base| v_ArrVal_653) |ULTIMATE.start_dll_create_#res#1.base|) (+ (- 4) |ULTIMATE.start_main_~#s~0#1.offset|))))) (<= |#StackHeapBarrier| |ULTIMATE.start_dll_create_#res#1.base|)))
(assert (= |ULTIMATE.start_dll_create_#res#1.base| |ULTIMATE.start_main_~#s~0#1.base|))
(assert (forall ((|v_ULTIMATE.start_node_create_~temp~0#1.base_7| Int)) (or (forall ((v_ArrVal_645 (Array Int Int)) (v_arrayElimCell_47 Int) (v_arrayElimCell_48 Int) (v_ArrVal_653 (Array Int Int))) (let ((.cse0 (store |#memory_int| |v_ULTIMATE.start_node_create_~temp~0#1.base_7| v_ArrVal_645))) (or (forall ((v_ArrVal_649 Int)) (= |ULTIMATE.start_main_~data~0#1| (select (select (store (store .cse0 |ULTIMATE.start_dll_create_#res#1.base| (store (select .cse0 |ULTIMATE.start_dll_create_#res#1.base|) (+ |ULTIMATE.start_dll_create_#res#1.offset| 12) v_ArrVal_649)) |ULTIMATE.start_main_~#s~0#1.base| v_ArrVal_653) |ULTIMATE.start_dll_create_#res#1.base|) |ULTIMATE.start_dll_create_#res#1.offset|))) (= |ULTIMATE.start_main_~data~0#1| (select (select (store .cse0 |ULTIMATE.start_main_~#s~0#1.base| v_ArrVal_653) v_arrayElimCell_47) v_arrayElimCell_48))))) (not (= 0 (select |#valid| |v_ULTIMATE.start_node_create_~temp~0#1.base_7|))) (<= |#StackHeapBarrier| |v_ULTIMATE.start_node_create_~temp~0#1.base_7|))))
(assert (not (forall ((|v_ULTIMATE.start_node_create_~temp~0#1.base_7| Int)) (or (forall ((v_ArrVal_645 (Array Int Int)) (v_ArrVal_649 Int) (v_ArrVal_653 (Array Int Int))) (= |ULTIMATE.start_main_~data~0#1| (select (select (store (let ((.cse0 (store |#memory_int| |v_ULTIMATE.start_node_create_~temp~0#1.base_7| v_ArrVal_645))) (store .cse0 |ULTIMATE.start_dll_create_#res#1.base| (store (select .cse0 |ULTIMATE.start_dll_create_#res#1.base|) (+ |ULTIMATE.start_dll_create_#res#1.offset| 12) v_ArrVal_649))) |ULTIMATE.start_main_~#s~0#1.base| v_ArrVal_653) |ULTIMATE.start_dll_create_#res#1.base|) |ULTIMATE.start_dll_create_#res#1.offset|))) (not (= 0 (select |#valid| |v_ULTIMATE.start_node_create_~temp~0#1.base_7|))) (<= |#StackHeapBarrier| |v_ULTIMATE.start_node_create_~temp~0#1.base_7|)))))
(check-sat)
(exit)
